\ LP format - for model browsing. Use MPS format to capture full model detail.
Maximize
  10 x_1 + 10 x_2 + 6 x_3 + 4 x_4 + 8 x_5 + 10 x_6 + 9 x_7 + 5 x_8 + 9 x_9
   + 5 x_10 + x_11 + 4 x_12 + 5 x_13 + 3 x_14 + 5 x_15 + 7 x_16 + 6 x_17
   + 2 x_18 + 5 x_19 + 10 x_20
Subject To
 C_1: 2 x_3 + 9 x_9 + 4 x_11 + 8 x_12 + 7 x_13 + 3 x_15 + 6 x_18 + 4 x_20
   <= 21
 C_2: 3 x_2 + 3 x_3 + 4 x_4 + 5 x_7 + x_10 + x_13 + 3 x_15 + 9 x_16
   + 4 x_19 <= 16
 C_3: 7 x_1 + 8 x_2 + x_3 + x_6 + 3 x_7 + 2 x_8 + 4 x_10 + 4 x_11 + 8 x_14
   + 6 x_16 + x_17 <= 22
 C_4: 4 x_1 + 2 x_4 + 8 x_5 + 10 x_7 + 5 x_8 + 9 x_11 + 6 x_12 + 2 x_13
   + 9 x_16 + x_18 + 7 x_19 <= 31
 C_5: 10 x_1 + 10 x_2 + 6 x_6 + 8 x_8 + 8 x_11 + 5 x_13 + 2 x_16 + x_18
   + 9 x_19 + 7 x_20 <= 33
 C_6: 4 x_5 + 7 x_6 + 6 x_11 + 2 x_12 + x_13 + 5 x_19 <= 12
 C_7: 5 x_1 + 7 x_4 + x_5 + 4 x_7 + x_9 + 5 x_11 + 7 x_14 + 9 x_16 + 9 x_17
   + 8 x_20 <= 28
 C_8: 8 x_1 + 8 x_2 + 7 x_3 + 9 x_5 + 3 x_6 + 6 x_8 + 8 x_9 + 5 x_11
   + 7 x_12 + 4 x_17 + 10 x_18 <= 37
 C_9: 5 x_1 + 9 x_4 + 7 x_6 + 2 x_9 + 5 x_10 + 8 x_11 + 8 x_12 + x_14
   + 4 x_15 + 9 x_17 + 7 x_19 + 7 x_20 <= 36
 C_10: 5 x_1 + 7 x_4 + 7 x_6 + x_7 + 5 x_9 + 4 x_10 + 10 x_11 + 10 x_12
   + 5 x_15 <= 27
Bounds
Binaries
 x_1 x_2 x_3 x_4 x_5 x_6 x_7 x_8 x_9 x_10 x_11 x_12 x_13 x_14 x_15 x_16
 x_17 x_18 x_19 x_20
End
